c This is QMaxSAT 2017 based on 14.07
c This is Glucose 3.0
c This is MiniSat 2.2.0
c WARNING: for repeatability, setting FPU to use double precision
c card = mrwto, comp = 0, pmodel = 0, narr = 12, mct = 52, verb = 0
cr firstCPXsol 0 0 0
c top = 1525567
c |  Number of variables:    7938                                             |
c |  Number of clauses:      428883                                           |
c |  Weight of hard clauses: 1525567                                          |
c |  Number of soft clauses: 45288                                            |
c |  Number of unit soft clauses: 0                                           |
c |  Maximum Cardinality (by unit): 23999424     (0           )               |
c last restart ## conflicts  :  1 2034 
o 15096 | cpuTime 0.083321 s
c Sum of weights = 1999952
c A number of soft clauses remained = 3774
c MRWTO encoding for Pseudo-Boolean Constraints
c sizeMax=15096
c No.0 Divisor=12	generated by pow1
c No.1 Divisor=11	generated by pow1
c No.2 Divisor=12	generated by pow1
c No.3 Divisor=12	generated by pow1
c p0= 12	p1= 11	p2= 12	p3= 12	
c number of digits = 5
c linkingVar[0].size = 12, linkingVar[1].size = 11, linkingVar[2].size = 12, linkingVar[3].size = 10, linkingVar[4].size = 1, 
c Pseudo-Boolean Constraints: 106596 variables and 1098157 clauses
c Sum of weights = 1999952
c A number of soft clauses remained = 3774
c MRWTO encoding for Pseudo-Boolean Constraints
c sizeMax=15096
c No.0 Divisor=12	generated by pow1
c No.1 Divisor=11	generated by pow1
c No.2 Divisor=12	generated by pow1
c No.3 Divisor=12	generated by pow1
c p0= 12	p1= 11	p2= 12	p3= 12	
c number of digits = 5
c linkingVar[0].size = 12, linkingVar[1].size = 11, linkingVar[2].size = 12, linkingVar[3].size = 10, linkingVar[4].size = 1, 
c Pseudo-Boolean Constraints: 106596 variables and 1098157 clauses
c Sum of weights = 1999952
c A number of soft clauses remained = 3774
c MRWTO encoding for Pseudo-Boolean Constraints
c sizeMax=15096
c No.0 Divisor=12	generated by pow1
c No.1 Divisor=11	generated by pow1
c No.2 Divisor=12	generated by pow1
c No.3 Divisor=12	generated by pow1
c p0= 12	p1= 11	p2= 12	p3= 12	
c number of digits = 5
c linkingVar[0].size = 12, linkingVar[1].size = 11, linkingVar[2].size = 12, linkingVar[3].size = 10, linkingVar[4].size = 1, 
c Pseudo-Boolean Constraints: 106596 variables and 1098157 clauses
c Sum of weights = 1999952
c A number of soft clauses remained = 3774
c MRWTO encoding for Pseudo-Boolean Constraints
c sizeMax=15096
c No.0 Divisor=12	generated by pow1
c No.1 Divisor=11	generated by pow1
c No.2 Divisor=12	generated by pow1
c No.3 Divisor=12	generated by pow1
c p0= 12	p1= 11	p2= 12	p3= 12	
c number of digits = 5
c linkingVar[0].size = 12, linkingVar[1].size = 11, linkingVar[2].size = 12, linkingVar[3].size = 10, linkingVar[4].size = 1, 
c Pseudo-Boolean Constraints: 106596 variables and 1098157 clauses
c Sum of weights = 1999952
c A number of soft clauses remained = 3774
c MRWTO encoding for Pseudo-Boolean Constraints
c sizeMax=15096
c No.0 Divisor=12	generated by pow1
c No.1 Divisor=11	generated by pow1
c No.2 Divisor=12	generated by pow1
c No.3 Divisor=12	generated by pow1
c p0= 12	p1= 11	p2= 12	p3= 12	
c number of digits = 5
c linkingVar[0].size = 12, linkingVar[1].size = 11, linkingVar[2].size = 12, linkingVar[3].size = 10, linkingVar[4].size = 1, 
c Pseudo-Boolean Constraints: 106596 variables and 1098157 clauses
c Sum of weights = 1999952
c A number of soft clauses remained = 3774
c MRWTO encoding for Pseudo-Boolean Constraints
c sizeMax=15096
c No.0 Divisor=12	generated by pow1
c No.1 Divisor=11	generated by pow1
c No.2 Divisor=12	generated by pow1
c No.3 Divisor=12	generated by pow1
c p0= 12	p1= 11	p2= 12	p3= 12	
c number of digits = 5
c linkingVar[0].size = 12, linkingVar[1].size = 11, linkingVar[2].size = 12, linkingVar[3].size = 10, linkingVar[4].size = 1, 
c Pseudo-Boolean Constraints: 106596 variables and 1098157 clauses
c Sum of weights = 1999952
c A number of soft clauses remained = 3774
c MRWTO encoding for Pseudo-Boolean Constraints
c sizeMax=15096
c No.0 Divisor=12	generated by pow1
c No.1 Divisor=11	generated by pow1
c No.2 Divisor=12	generated by pow1
c No.3 Divisor=12	generated by pow1
c p0= 12	p1= 11	p2= 12	p3= 12	
c number of digits = 5
c linkingVar[0].size = 12, linkingVar[1].size = 11, linkingVar[2].size = 12, linkingVar[3].size = 10, linkingVar[4].size = 1, 
c Pseudo-Boolean Constraints: 106596 variables and 1098157 clauses
c Sum of weights = 1999952
c A number of soft clauses remained = 3774
c MRWTO encoding for Pseudo-Boolean Constraints
c sizeMax=15096
c No.0 Divisor=12	generated by pow1
c No.1 Divisor=11	generated by pow1
c No.2 Divisor=12	generated by pow1
c No.3 Divisor=12	generated by pow1
c p0= 12	p1= 11	p2= 12	p3= 12	
c number of digits = 5
c linkingVar[0].size = 12, linkingVar[1].size = 11, linkingVar[2].size = 12, linkingVar[3].size = 10, linkingVar[4].size = 1, 
c Pseudo-Boolean Constraints: 106596 variables and 1098157 clauses
c Sum of weights = 1999952
c A number of soft clauses remained = 3774
c MRWTO encoding for Pseudo-Boolean Constraints
c sizeMax=15096
c No.0 Divisor=12	generated by pow1
c No.1 Divisor=11	generated by pow1
c No.2 Divisor=12	generated by pow1
c No.3 Divisor=12	generated by pow1
c p0= 12	p1= 11	p2= 12	p3= 12	
c number of digits = 5
c linkingVar[0].size = 12, linkingVar[1].size = 11, linkingVar[2].size = 12, linkingVar[3].size = 10, linkingVar[4].size = 1, 
c Pseudo-Boolean Constraints: 106596 variables and 1098157 clauses
c Sum of weights = 1999952
c A number of soft clauses remained = 3774
c MRWTO encoding for Pseudo-Boolean Constraints
c sizeMax=15096
c No.0 Divisor=12	generated by pow1
c No.1 Divisor=11	generated by pow1
c No.2 Divisor=12	generated by pow1
c No.3 Divisor=12	generated by pow1
c p0= 12	p1= 11	p2= 12	p3= 12	
c number of digits = 5
c linkingVar[0].size = 12, linkingVar[1].size = 11, linkingVar[2].size = 12, linkingVar[3].size = 10, linkingVar[4].size = 1, 
c Pseudo-Boolean Constraints: 106596 variables and 1098157 clauses
c Sum of weights = 1999952
c A number of soft clauses remained = 3774
c MRWTO encoding for Pseudo-Boolean Constraints
c sizeMax=15096
c No.0 Divisor=12	generated by pow1
c No.1 Divisor=11	generated by pow1
c No.2 Divisor=12	generated by pow1
c No.3 Divisor=12	generated by pow1
c p0= 12	p1= 11	p2= 12	p3= 12	
c number of digits = 5
c linkingVar[0].size = 12, linkingVar[1].size = 11, linkingVar[2].size = 12, linkingVar[3].size = 10, linkingVar[4].size = 1, 
c Pseudo-Boolean Constraints: 106596 variables and 1098157 clauses
c Sum of weights = 1999952
c A number of soft clauses remained = 3774
c MRWTO encoding for Pseudo-Boolean Constraints
c sizeMax=15096
c No.0 Divisor=12	generated by pow1
c No.1 Divisor=11	generated by pow1
c No.2 Divisor=12	generated by pow1
c No.3 Divisor=12	generated by pow1
c p0= 12	p1= 11	p2= 12	p3= 12	
c number of digits = 5
c linkingVar[0].size = 12, linkingVar[1].size = 11, linkingVar[2].size = 12, linkingVar[3].size = 10, linkingVar[4].size = 1, 
c Pseudo-Boolean Constraints: 106596 variables and 1098157 clauses
c last restart ## conflicts  :  568 32641 
o 11762 | cpuTime 8.39059 s
c last restart ## conflicts  :  305 37049 
o 8099 | cpuTime 10.4911 s
c last restart ## conflicts  :  331 18535 
o 6263 | cpuTime 12.6675 s
c last restart ## conflicts  :  400 30641 
o 5648 | cpuTime 18.2462 s
c last restart ## conflicts  :  475 31060 
o 5023 | cpuTime 25.3463 s
c last restart ## conflicts  :  616 20549 
o 4108 | cpuTime 39.2568 s
c last restart ## conflicts  :  341 23877 
o 3774 | cpuTime 69.7078 s
c last restart ## conflicts  :  872 14667 
o 3263 | cpuTime 111.946 s
c last restart ## conflicts  :  395 16829 
o 3102 | cpuTime 442.864 s
c last restart ## conflicts  :  654 17883 
o 3060 | cpuTime 2280.91 s
c last restart ## conflicts  :  176 25375 
o 2936 | cpuTime 3270.86 s
s UNKNOWN
c Search is stopped by a limit (maybe time-limit)
cr positiVarArr: [ | 27(1->16) | 110(1->36) | 151(1->14) | 209(1->9) | 294(1->31) | 367(1->41) | 396(1->7) | 465(1->13) | 561(1->46) | 607(1->29) | 691(1->50) | 721(1->17) | 790(2->23) | 832(3->2) | 899(4->6) | 980(5->24) | 1034(6->15) | 1101(7->19) | 1184(8->39) | 1218(9->10) | 1314(10->43) | 1372(11->38) | 1387(12->1) | 1511(13->51) | 1575(14->52) | 1591(15->5) | 1640(16->1) | 1754(17->42) | 1797(18->22) | 1859(19->21) | 1900(20->1) | 1994(21->30) | 2028(22->1) | 2085(23->1) | 2201(24->48) | 2220(25->4) | 2326(26->47) | 2334(27->1) | 2431(28->26) | 2468(29->1) | 2580(30->49) | 2612(31->18) | 2702(32->45) | 2747(33->27) | 2816(34->33) | 2880(35->34) | 2944(36->35) | 3012(37->40) | 3031(38->1) | 3135(39->37) | 3159(40->1) | 3232(41->8) | 3290(42->3) | 3362(43->12) | 3438(44->25) | 3470(45->1) | 3567(46->28) | 3646(47->44) | 3662(48->1) | 3721(49->1) | 3811(50->20) | 3886(51->32) | 3928(52->11) | ]
cr the 1-th chain: [ 1->16->1 ] (#non-depot=1) {#cumul.=2}
cr the 2-th chain: [ 1->36->35->34->33->27->1 ] (#non-depot=5) {#cumul.=7}
cr the 3-th chain: [ 1->14->52->11->38->1 ] (#non-depot=4) {#cumul.=11}
cr the 4-th chain: [ 1->9->10->43->12->1 ] (#non-depot=4) {#cumul.=15}
cr the 5-th chain: [ 1->31->18->22->1 ] (#non-depot=3) {#cumul.=18}
cr the 6-th chain: [ 1->41->8->39->37->40->1 ] (#non-depot=5) {#cumul.=23}
cr the 7-th chain: [ 1->7->19->21->30->49->1 ] (#non-depot=5) {#cumul.=28}
cr the 8-th chain: [ 1->13->51->32->45->1 ] (#non-depot=4) {#cumul.=32}
cr the 9-th chain: [ 1->46->28->26->47->44->25->4->6->15->5->24->48->1 ] (#non-depot=12) {#cumul.=44}
cr the 10-th chain: [ 1->29->1 ] (#non-depot=1) {#cumul.=45}
cr the 11-th chain: [ 1->50->20->1 ] (#non-depot=2) {#cumul.=47}
cr the 12-th chain: [ 1->17->42->3->2->23->1 ] (#non-depot=5) {#cumul.=52}
c Latest Answer = 0 by 12 loops
c restarts              : 29322
c conflicts             : 6005323        (1670 /sec)
c decisions             : 87743447       (0.00 % random) (24406 /sec)
c propagations          : 34328295592    (9548451 /sec)
c conflict literals     : 826476758      (34.86 % deleted)
c Memory used           : 1739.00 MB
c CPU time              : 3595.17 s
